predicate globalCardinalityChoco(array [int] of var int: x,array [int] of int: cover,array [int] of var int: counts,bool: closed);
predicate alldifferentChoco(array [int] of var int: x);
predicate atleastChoco(int: n,array [int] of var int: x,int: v);
predicate atmostChoco(int: n,array [int] of var int: x,int: v);
array [1..14] of int: X_INTRODUCED_71_ = [2,1,1,1,1,1,1,1,1,1,1,1,1,1];
array [1..14] of int: X_INTRODUCED_72_ = [0,1,2,3,4,5,6,7,8,9,10,11,12,13];
array [1..2] of int: X_INTRODUCED_88_ = [1,1];
array [1..196] of int: X_INTRODUCED_269_ = [0,0,0,0,0,0,0,0,0,0,0,0,0,0,0,0,0,0,0,128,128,128,117,117,197,197,178,178,0,0,0,0,0,128,128,128,117,117,197,197,178,178,0,0,0,0,0,128,128,128,117,117,197,197,178,178,0,0,0,0,0,128,128,128,117,117,197,197,178,178,0,125,125,125,125,0,0,0,102,102,146,146,175,175,0,125,125,125,125,0,0,0,102,102,146,146,175,175,0,125,125,125,125,0,0,0,102,102,146,146,175,175,0,179,179,179,179,191,191,191,0,0,190,190,161,161,0,179,179,179,179,191,191,191,0,0,190,190,161,161,0,156,156,156,156,139,139,139,119,119,0,0,189,189,0,156,156,156,156,139,139,139,119,119,0,0,189,189,0,109,109,109,109,121,121,121,111,111,187,187,0,0,0,109,109,109,109,121,121,121,111,111,187,187,0,0];
array [1..2] of int: X_INTRODUCED_299_ = [1,-1];
array [1..28] of int: X_INTRODUCED_306_ = [1,-1,-1,-1,-1,-1,-1,-1,-1,-1,-1,-1,-1,-1,-1,-10,-10,-10,-10,-10,-10,-10,-10,-10,-10,-10,-10,-10];
var 0..13: X_INTRODUCED_0_;
var 0..13: X_INTRODUCED_1_;
var 0..13: X_INTRODUCED_2_;
var 0..13: X_INTRODUCED_3_;
var 0..13: X_INTRODUCED_4_;
var 0..13: X_INTRODUCED_5_;
var {0,2,3,4,5,6,7,8,9,10,11,12,13}: X_INTRODUCED_6_;
var {0,2,3,4,5,6,7,9,10,11,12,13}: X_INTRODUCED_7_;
var {0,2,3,4,5,6,7,9,10,11,12,13}: X_INTRODUCED_8_;
var {0,3,4,5,6,7,9,10,11,13}: X_INTRODUCED_9_;
var {0,3,4,6,7,9,10,11,13}: X_INTRODUCED_10_;
var {0,4,6,7,9,11,13}: X_INTRODUCED_11_;
var {0,4,6,7,9,11,13}: X_INTRODUCED_12_;
var {0,4,7,9,11,13}: X_INTRODUCED_13_;
var {0,4,7,13}: X_INTRODUCED_14_;
var 1..15: X_INTRODUCED_15_;
var 1..15: X_INTRODUCED_16_;
var 1..15: X_INTRODUCED_17_;
var 1..15: X_INTRODUCED_18_;
var 1..15: X_INTRODUCED_19_;
var 1..15: X_INTRODUCED_20_;
var 1..15: X_INTRODUCED_21_;
var 1..15: X_INTRODUCED_22_;
var 1..15: X_INTRODUCED_23_;
var 1..15: X_INTRODUCED_24_;
var 1..15: X_INTRODUCED_25_;
var 1..15: X_INTRODUCED_26_;
var 1..15: X_INTRODUCED_27_;
var 0..5: X_INTRODUCED_28_:: is_defined_var;
var 0..8: X_INTRODUCED_29_:: is_defined_var;
var 0..10: X_INTRODUCED_30_:: is_defined_var;
var 0..14: X_INTRODUCED_31_:: is_defined_var;
var 0..9: X_INTRODUCED_32_:: is_defined_var;
var 0..12: X_INTRODUCED_33_:: is_defined_var;
var 0..14: X_INTRODUCED_34_:: is_defined_var;
var 0..6: X_INTRODUCED_35_:: is_defined_var;
var 0..13: X_INTRODUCED_36_:: is_defined_var;
var 0..10: X_INTRODUCED_37_:: is_defined_var;
var 0..13: X_INTRODUCED_38_:: is_defined_var;
var 0..8: X_INTRODUCED_39_:: is_defined_var;
var 0..14: X_INTRODUCED_40_:: is_defined_var;
var 0..13: X_INTRODUCED_56_;
var 0..13: X_INTRODUCED_57_;
var 0..13: X_INTRODUCED_58_;
var 0..13: X_INTRODUCED_59_;
var 0..13: X_INTRODUCED_60_;
var 0..13: X_INTRODUCED_61_;
var 0..13: X_INTRODUCED_62_;
var 0..13: X_INTRODUCED_63_;
var 0..13: X_INTRODUCED_64_;
var 0..13: X_INTRODUCED_65_;
var 0..13: X_INTRODUCED_66_;
var 0..13: X_INTRODUCED_67_;
var 0..13: X_INTRODUCED_68_;
var 0..13: X_INTRODUCED_69_;
var 0..4118: objective:: output_var:: is_defined_var;
var bool: X_INTRODUCED_101_ ::var_is_introduced :: is_defined_var;
var bool: X_INTRODUCED_102_ ::var_is_introduced :: is_defined_var;
var bool: X_INTRODUCED_103_ ::var_is_introduced :: is_defined_var;
var bool: X_INTRODUCED_113_ ::var_is_introduced :: is_defined_var;
var bool: X_INTRODUCED_114_ ::var_is_introduced :: is_defined_var;
var bool: X_INTRODUCED_115_ ::var_is_introduced :: is_defined_var;
var bool: X_INTRODUCED_125_ ::var_is_introduced :: is_defined_var;
var bool: X_INTRODUCED_126_ ::var_is_introduced :: is_defined_var;
var bool: X_INTRODUCED_127_ ::var_is_introduced :: is_defined_var;
var bool: X_INTRODUCED_137_ ::var_is_introduced :: is_defined_var;
var bool: X_INTRODUCED_138_ ::var_is_introduced :: is_defined_var;
var bool: X_INTRODUCED_139_ ::var_is_introduced :: is_defined_var;
var bool: X_INTRODUCED_149_ ::var_is_introduced :: is_defined_var;
var bool: X_INTRODUCED_150_ ::var_is_introduced :: is_defined_var;
var bool: X_INTRODUCED_151_ ::var_is_introduced :: is_defined_var;
var bool: X_INTRODUCED_161_ ::var_is_introduced :: is_defined_var;
var bool: X_INTRODUCED_162_ ::var_is_introduced :: is_defined_var;
var bool: X_INTRODUCED_163_ ::var_is_introduced :: is_defined_var;
var bool: X_INTRODUCED_173_ ::var_is_introduced :: is_defined_var;
var bool: X_INTRODUCED_174_ ::var_is_introduced :: is_defined_var;
var bool: X_INTRODUCED_175_ ::var_is_introduced :: is_defined_var;
var bool: X_INTRODUCED_185_ ::var_is_introduced :: is_defined_var;
var bool: X_INTRODUCED_186_ ::var_is_introduced :: is_defined_var;
var bool: X_INTRODUCED_187_ ::var_is_introduced :: is_defined_var;
var bool: X_INTRODUCED_197_ ::var_is_introduced :: is_defined_var;
var bool: X_INTRODUCED_198_ ::var_is_introduced :: is_defined_var;
var bool: X_INTRODUCED_199_ ::var_is_introduced :: is_defined_var;
var bool: X_INTRODUCED_209_ ::var_is_introduced :: is_defined_var;
var bool: X_INTRODUCED_210_ ::var_is_introduced :: is_defined_var;
var bool: X_INTRODUCED_211_ ::var_is_introduced :: is_defined_var;
var bool: X_INTRODUCED_221_ ::var_is_introduced :: is_defined_var;
var bool: X_INTRODUCED_222_ ::var_is_introduced :: is_defined_var;
var bool: X_INTRODUCED_223_ ::var_is_introduced :: is_defined_var;
var bool: X_INTRODUCED_233_ ::var_is_introduced :: is_defined_var;
var bool: X_INTRODUCED_234_ ::var_is_introduced :: is_defined_var;
var bool: X_INTRODUCED_235_ ::var_is_introduced :: is_defined_var;
var bool: X_INTRODUCED_245_ ::var_is_introduced :: is_defined_var;
var bool: X_INTRODUCED_246_ ::var_is_introduced :: is_defined_var;
var bool: X_INTRODUCED_247_ ::var_is_introduced :: is_defined_var;
var bool: X_INTRODUCED_257_ ::var_is_introduced :: is_defined_var;
var bool: X_INTRODUCED_258_ ::var_is_introduced :: is_defined_var;
var bool: X_INTRODUCED_259_ ::var_is_introduced :: is_defined_var;
var 1..196: X_INTRODUCED_271_ ::var_is_introduced :: is_defined_var;
var 0..197: X_INTRODUCED_272_ ::var_is_introduced :: is_defined_var;
var 1..196: X_INTRODUCED_273_ ::var_is_introduced :: is_defined_var;
var 0..197: X_INTRODUCED_274_ ::var_is_introduced :: is_defined_var;
var 1..196: X_INTRODUCED_275_ ::var_is_introduced :: is_defined_var;
var 0..197: X_INTRODUCED_276_ ::var_is_introduced :: is_defined_var;
var 1..196: X_INTRODUCED_277_ ::var_is_introduced :: is_defined_var;
var 0..197: X_INTRODUCED_278_ ::var_is_introduced :: is_defined_var;
var 1..196: X_INTRODUCED_279_ ::var_is_introduced :: is_defined_var;
var 0..197: X_INTRODUCED_280_ ::var_is_introduced :: is_defined_var;
var 1..196: X_INTRODUCED_281_ ::var_is_introduced :: is_defined_var;
var 0..197: X_INTRODUCED_282_ ::var_is_introduced :: is_defined_var;
var 1..196: X_INTRODUCED_283_ ::var_is_introduced :: is_defined_var;
var 0..197: X_INTRODUCED_284_ ::var_is_introduced :: is_defined_var;
var 1..196: X_INTRODUCED_285_ ::var_is_introduced :: is_defined_var;
var 0..197: X_INTRODUCED_286_ ::var_is_introduced :: is_defined_var;
var 1..196: X_INTRODUCED_287_ ::var_is_introduced :: is_defined_var;
var 0..197: X_INTRODUCED_288_ ::var_is_introduced :: is_defined_var;
var 1..196: X_INTRODUCED_289_ ::var_is_introduced :: is_defined_var;
var 0..197: X_INTRODUCED_290_ ::var_is_introduced :: is_defined_var;
var 1..196: X_INTRODUCED_291_ ::var_is_introduced :: is_defined_var;
var 0..197: X_INTRODUCED_292_ ::var_is_introduced :: is_defined_var;
var 1..196: X_INTRODUCED_293_ ::var_is_introduced :: is_defined_var;
var 0..197: X_INTRODUCED_294_ ::var_is_introduced :: is_defined_var;
var 1..196: X_INTRODUCED_295_ ::var_is_introduced :: is_defined_var;
var 0..197: X_INTRODUCED_296_ ::var_is_introduced :: is_defined_var;
var 1..196: X_INTRODUCED_297_ ::var_is_introduced :: is_defined_var;
var 0..197: X_INTRODUCED_298_ ::var_is_introduced :: is_defined_var;
array [1..15] of var int: production_by_order:: output_array([1..15]) = [X_INTRODUCED_0_,X_INTRODUCED_1_,X_INTRODUCED_2_,X_INTRODUCED_3_,X_INTRODUCED_4_,X_INTRODUCED_5_,X_INTRODUCED_6_,X_INTRODUCED_7_,X_INTRODUCED_8_,X_INTRODUCED_9_,X_INTRODUCED_10_,X_INTRODUCED_11_,X_INTRODUCED_12_,X_INTRODUCED_13_,X_INTRODUCED_14_];
array [1..13] of var int: production_period = [X_INTRODUCED_15_,X_INTRODUCED_16_,X_INTRODUCED_17_,X_INTRODUCED_18_,X_INTRODUCED_19_,X_INTRODUCED_20_,X_INTRODUCED_21_,X_INTRODUCED_22_,X_INTRODUCED_23_,X_INTRODUCED_24_,X_INTRODUCED_25_,X_INTRODUCED_26_,X_INTRODUCED_27_];
array [1..13] of var int: inventory_periods:: output_array([1..13]) = [X_INTRODUCED_28_,X_INTRODUCED_29_,X_INTRODUCED_30_,X_INTRODUCED_31_,X_INTRODUCED_32_,X_INTRODUCED_33_,X_INTRODUCED_34_,X_INTRODUCED_35_,X_INTRODUCED_36_,X_INTRODUCED_37_,X_INTRODUCED_38_,X_INTRODUCED_39_,X_INTRODUCED_40_];
array [1..15] of var int: production_order = [X_INTRODUCED_0_,X_INTRODUCED_56_,X_INTRODUCED_57_,X_INTRODUCED_58_,X_INTRODUCED_59_,X_INTRODUCED_60_,X_INTRODUCED_61_,X_INTRODUCED_62_,X_INTRODUCED_63_,X_INTRODUCED_64_,X_INTRODUCED_65_,X_INTRODUCED_66_,X_INTRODUCED_67_,X_INTRODUCED_68_,X_INTRODUCED_69_];
array [1..28] of var int: X_INTRODUCED_305_ ::var_is_introduced  = [objective,X_INTRODUCED_272_,X_INTRODUCED_274_,X_INTRODUCED_276_,X_INTRODUCED_278_,X_INTRODUCED_280_,X_INTRODUCED_282_,X_INTRODUCED_284_,X_INTRODUCED_286_,X_INTRODUCED_288_,X_INTRODUCED_290_,X_INTRODUCED_292_,X_INTRODUCED_294_,X_INTRODUCED_296_,X_INTRODUCED_298_,X_INTRODUCED_28_,X_INTRODUCED_29_,X_INTRODUCED_30_,X_INTRODUCED_31_,X_INTRODUCED_32_,X_INTRODUCED_33_,X_INTRODUCED_34_,X_INTRODUCED_35_,X_INTRODUCED_36_,X_INTRODUCED_37_,X_INTRODUCED_38_,X_INTRODUCED_39_,X_INTRODUCED_40_];
constraint globalCardinalityChoco(production_by_order,X_INTRODUCED_72_,X_INTRODUCED_71_,false);
constraint array_var_int_element(X_INTRODUCED_15_,production_by_order,1);
constraint array_var_int_element(X_INTRODUCED_16_,production_by_order,2);
constraint array_var_int_element(X_INTRODUCED_17_,production_by_order,3);
constraint array_var_int_element(X_INTRODUCED_18_,production_by_order,4);
constraint array_var_int_element(X_INTRODUCED_19_,production_by_order,5);
constraint array_var_int_element(X_INTRODUCED_20_,production_by_order,6);
constraint array_var_int_element(X_INTRODUCED_21_,production_by_order,7);
constraint array_var_int_element(X_INTRODUCED_22_,production_by_order,8);
constraint array_var_int_element(X_INTRODUCED_23_,production_by_order,9);
constraint array_var_int_element(X_INTRODUCED_24_,production_by_order,10);
constraint array_var_int_element(X_INTRODUCED_25_,production_by_order,11);
constraint array_var_int_element(X_INTRODUCED_26_,production_by_order,12);
constraint array_var_int_element(X_INTRODUCED_27_,production_by_order,13);
constraint alldifferentChoco(production_period);
constraint int_lin_eq(X_INTRODUCED_88_,[X_INTRODUCED_28_,X_INTRODUCED_15_],6):: defines_var(X_INTRODUCED_28_);
constraint int_lin_eq(X_INTRODUCED_88_,[X_INTRODUCED_29_,X_INTRODUCED_16_],9):: defines_var(X_INTRODUCED_29_);
constraint int_lin_eq(X_INTRODUCED_88_,[X_INTRODUCED_30_,X_INTRODUCED_17_],11):: defines_var(X_INTRODUCED_30_);
constraint int_lin_eq(X_INTRODUCED_88_,[X_INTRODUCED_31_,X_INTRODUCED_18_],15):: defines_var(X_INTRODUCED_31_);
constraint int_lin_eq(X_INTRODUCED_88_,[X_INTRODUCED_32_,X_INTRODUCED_19_],10):: defines_var(X_INTRODUCED_32_);
constraint int_lin_eq(X_INTRODUCED_88_,[X_INTRODUCED_33_,X_INTRODUCED_20_],13):: defines_var(X_INTRODUCED_33_);
constraint int_lin_eq(X_INTRODUCED_88_,[X_INTRODUCED_34_,X_INTRODUCED_21_],15):: defines_var(X_INTRODUCED_34_);
constraint int_lin_eq(X_INTRODUCED_88_,[X_INTRODUCED_35_,X_INTRODUCED_22_],7):: defines_var(X_INTRODUCED_35_);
constraint int_lin_eq(X_INTRODUCED_88_,[X_INTRODUCED_36_,X_INTRODUCED_23_],14):: defines_var(X_INTRODUCED_36_);
constraint int_lin_eq(X_INTRODUCED_88_,[X_INTRODUCED_37_,X_INTRODUCED_24_],11):: defines_var(X_INTRODUCED_37_);
constraint int_lin_eq(X_INTRODUCED_88_,[X_INTRODUCED_38_,X_INTRODUCED_25_],14):: defines_var(X_INTRODUCED_38_);
constraint int_lin_eq(X_INTRODUCED_88_,[X_INTRODUCED_39_,X_INTRODUCED_26_],9):: defines_var(X_INTRODUCED_39_);
constraint int_lin_eq(X_INTRODUCED_88_,[X_INTRODUCED_40_,X_INTRODUCED_27_],15):: defines_var(X_INTRODUCED_40_);
constraint bool_clause([X_INTRODUCED_102_],[X_INTRODUCED_101_]);
constraint array_bool_or([X_INTRODUCED_101_,X_INTRODUCED_103_],true);
constraint bool_clause([X_INTRODUCED_114_],[X_INTRODUCED_113_]);
constraint array_bool_or([X_INTRODUCED_113_,X_INTRODUCED_115_],true);
constraint bool_clause([X_INTRODUCED_126_],[X_INTRODUCED_125_]);
constraint array_bool_or([X_INTRODUCED_125_,X_INTRODUCED_127_],true);
constraint bool_clause([X_INTRODUCED_138_],[X_INTRODUCED_137_]);
constraint array_bool_or([X_INTRODUCED_137_,X_INTRODUCED_139_],true);
constraint bool_clause([X_INTRODUCED_150_],[X_INTRODUCED_149_]);
constraint array_bool_or([X_INTRODUCED_149_,X_INTRODUCED_151_],true);
constraint bool_clause([X_INTRODUCED_162_],[X_INTRODUCED_161_]);
constraint array_bool_or([X_INTRODUCED_161_,X_INTRODUCED_163_],true);
constraint bool_clause([X_INTRODUCED_174_],[X_INTRODUCED_173_]);
constraint array_bool_or([X_INTRODUCED_173_,X_INTRODUCED_175_],true);
constraint bool_clause([X_INTRODUCED_186_],[X_INTRODUCED_185_]);
constraint array_bool_or([X_INTRODUCED_185_,X_INTRODUCED_187_],true);
constraint bool_clause([X_INTRODUCED_198_],[X_INTRODUCED_197_]);
constraint array_bool_or([X_INTRODUCED_197_,X_INTRODUCED_199_],true);
constraint bool_clause([X_INTRODUCED_210_],[X_INTRODUCED_209_]);
constraint array_bool_or([X_INTRODUCED_209_,X_INTRODUCED_211_],true);
constraint bool_clause([X_INTRODUCED_222_],[X_INTRODUCED_221_]);
constraint array_bool_or([X_INTRODUCED_221_,X_INTRODUCED_223_],true);
constraint bool_clause([X_INTRODUCED_234_],[X_INTRODUCED_233_]);
constraint array_bool_or([X_INTRODUCED_233_,X_INTRODUCED_235_],true);
constraint bool_clause([X_INTRODUCED_246_],[X_INTRODUCED_245_]);
constraint array_bool_or([X_INTRODUCED_245_,X_INTRODUCED_247_],true);
constraint bool_clause([X_INTRODUCED_258_],[X_INTRODUCED_257_]);
constraint array_bool_or([X_INTRODUCED_257_,X_INTRODUCED_259_],true);
constraint atleastChoco(1,production_order,1);
constraint atmostChoco(3,production_order,1);
constraint atleastChoco(1,production_order,2);
constraint atmostChoco(3,production_order,2);
constraint atleastChoco(1,production_order,3);
constraint atmostChoco(3,production_order,3);
constraint atleastChoco(1,production_order,4);
constraint atmostChoco(3,production_order,4);
constraint atleastChoco(1,production_order,5);
constraint atmostChoco(3,production_order,5);
constraint atleastChoco(1,production_order,6);
constraint atmostChoco(3,production_order,6);
constraint atleastChoco(1,production_order,7);
constraint atmostChoco(3,production_order,7);
constraint atleastChoco(1,production_order,8);
constraint atmostChoco(3,production_order,8);
constraint atleastChoco(1,production_order,9);
constraint atmostChoco(3,production_order,9);
constraint atleastChoco(1,production_order,10);
constraint atmostChoco(3,production_order,10);
constraint atleastChoco(1,production_order,11);
constraint atmostChoco(3,production_order,11);
constraint atleastChoco(1,production_order,12);
constraint atmostChoco(3,production_order,12);
constraint atleastChoco(1,production_order,13);
constraint atmostChoco(3,production_order,13);
constraint array_int_element(X_INTRODUCED_271_,X_INTRODUCED_269_,X_INTRODUCED_272_):: defines_var(X_INTRODUCED_272_);
constraint array_int_element(X_INTRODUCED_273_,X_INTRODUCED_269_,X_INTRODUCED_274_):: defines_var(X_INTRODUCED_274_);
constraint array_int_element(X_INTRODUCED_275_,X_INTRODUCED_269_,X_INTRODUCED_276_):: defines_var(X_INTRODUCED_276_);
constraint array_int_element(X_INTRODUCED_277_,X_INTRODUCED_269_,X_INTRODUCED_278_):: defines_var(X_INTRODUCED_278_);
constraint array_int_element(X_INTRODUCED_279_,X_INTRODUCED_269_,X_INTRODUCED_280_):: defines_var(X_INTRODUCED_280_);
constraint array_int_element(X_INTRODUCED_281_,X_INTRODUCED_269_,X_INTRODUCED_282_):: defines_var(X_INTRODUCED_282_);
constraint array_int_element(X_INTRODUCED_283_,X_INTRODUCED_269_,X_INTRODUCED_284_):: defines_var(X_INTRODUCED_284_);
constraint array_int_element(X_INTRODUCED_285_,X_INTRODUCED_269_,X_INTRODUCED_286_):: defines_var(X_INTRODUCED_286_);
constraint array_int_element(X_INTRODUCED_287_,X_INTRODUCED_269_,X_INTRODUCED_288_):: defines_var(X_INTRODUCED_288_);
constraint array_int_element(X_INTRODUCED_289_,X_INTRODUCED_269_,X_INTRODUCED_290_):: defines_var(X_INTRODUCED_290_);
constraint array_int_element(X_INTRODUCED_291_,X_INTRODUCED_269_,X_INTRODUCED_292_):: defines_var(X_INTRODUCED_292_);
constraint array_int_element(X_INTRODUCED_293_,X_INTRODUCED_269_,X_INTRODUCED_294_):: defines_var(X_INTRODUCED_294_);
constraint array_int_element(X_INTRODUCED_295_,X_INTRODUCED_269_,X_INTRODUCED_296_):: defines_var(X_INTRODUCED_296_);
constraint array_int_element(X_INTRODUCED_297_,X_INTRODUCED_269_,X_INTRODUCED_298_):: defines_var(X_INTRODUCED_298_);
constraint int_lin_le(X_INTRODUCED_299_,[X_INTRODUCED_15_,X_INTRODUCED_16_],-1);
constraint int_lin_le(X_INTRODUCED_299_,[X_INTRODUCED_16_,X_INTRODUCED_17_],-1);
constraint int_lin_le(X_INTRODUCED_299_,[X_INTRODUCED_17_,X_INTRODUCED_18_],-1);
constraint int_lin_le(X_INTRODUCED_299_,[X_INTRODUCED_19_,X_INTRODUCED_20_],-1);
constraint int_lin_le(X_INTRODUCED_299_,[X_INTRODUCED_20_,X_INTRODUCED_21_],-1);
constraint int_lin_le(X_INTRODUCED_299_,[X_INTRODUCED_22_,X_INTRODUCED_23_],-1);
constraint int_lin_le(X_INTRODUCED_299_,[X_INTRODUCED_24_,X_INTRODUCED_25_],-1);
constraint int_lin_le(X_INTRODUCED_299_,[X_INTRODUCED_26_,X_INTRODUCED_27_],-1);
constraint int_lin_eq(X_INTRODUCED_306_,X_INTRODUCED_305_,0):: defines_var(objective);
constraint int_eq_reif(X_INTRODUCED_1_,0,X_INTRODUCED_101_):: defines_var(X_INTRODUCED_101_);
constraint int_eq_reif(X_INTRODUCED_56_,X_INTRODUCED_0_,X_INTRODUCED_102_):: defines_var(X_INTRODUCED_102_);
constraint int_eq_reif(X_INTRODUCED_56_,X_INTRODUCED_1_,X_INTRODUCED_103_):: defines_var(X_INTRODUCED_103_);
constraint int_eq_reif(X_INTRODUCED_2_,0,X_INTRODUCED_113_):: defines_var(X_INTRODUCED_113_);
constraint int_eq_reif(X_INTRODUCED_57_,X_INTRODUCED_56_,X_INTRODUCED_114_):: defines_var(X_INTRODUCED_114_);
constraint int_eq_reif(X_INTRODUCED_57_,X_INTRODUCED_2_,X_INTRODUCED_115_):: defines_var(X_INTRODUCED_115_);
constraint int_eq_reif(X_INTRODUCED_3_,0,X_INTRODUCED_125_):: defines_var(X_INTRODUCED_125_);
constraint int_eq_reif(X_INTRODUCED_58_,X_INTRODUCED_57_,X_INTRODUCED_126_):: defines_var(X_INTRODUCED_126_);
constraint int_eq_reif(X_INTRODUCED_58_,X_INTRODUCED_3_,X_INTRODUCED_127_):: defines_var(X_INTRODUCED_127_);
constraint int_eq_reif(X_INTRODUCED_4_,0,X_INTRODUCED_137_):: defines_var(X_INTRODUCED_137_);
constraint int_eq_reif(X_INTRODUCED_59_,X_INTRODUCED_58_,X_INTRODUCED_138_):: defines_var(X_INTRODUCED_138_);
constraint int_eq_reif(X_INTRODUCED_59_,X_INTRODUCED_4_,X_INTRODUCED_139_):: defines_var(X_INTRODUCED_139_);
constraint int_eq_reif(X_INTRODUCED_5_,0,X_INTRODUCED_149_):: defines_var(X_INTRODUCED_149_);
constraint int_eq_reif(X_INTRODUCED_60_,X_INTRODUCED_59_,X_INTRODUCED_150_):: defines_var(X_INTRODUCED_150_);
constraint int_eq_reif(X_INTRODUCED_60_,X_INTRODUCED_5_,X_INTRODUCED_151_):: defines_var(X_INTRODUCED_151_);
constraint int_eq_reif(X_INTRODUCED_6_,0,X_INTRODUCED_161_):: defines_var(X_INTRODUCED_161_);
constraint int_eq_reif(X_INTRODUCED_61_,X_INTRODUCED_60_,X_INTRODUCED_162_):: defines_var(X_INTRODUCED_162_);
constraint int_eq_reif(X_INTRODUCED_61_,X_INTRODUCED_6_,X_INTRODUCED_163_):: defines_var(X_INTRODUCED_163_);
constraint int_eq_reif(X_INTRODUCED_7_,0,X_INTRODUCED_173_):: defines_var(X_INTRODUCED_173_);
constraint int_eq_reif(X_INTRODUCED_62_,X_INTRODUCED_61_,X_INTRODUCED_174_):: defines_var(X_INTRODUCED_174_);
constraint int_eq_reif(X_INTRODUCED_62_,X_INTRODUCED_7_,X_INTRODUCED_175_):: defines_var(X_INTRODUCED_175_);
constraint int_eq_reif(X_INTRODUCED_8_,0,X_INTRODUCED_185_):: defines_var(X_INTRODUCED_185_);
constraint int_eq_reif(X_INTRODUCED_63_,X_INTRODUCED_62_,X_INTRODUCED_186_):: defines_var(X_INTRODUCED_186_);
constraint int_eq_reif(X_INTRODUCED_63_,X_INTRODUCED_8_,X_INTRODUCED_187_):: defines_var(X_INTRODUCED_187_);
constraint int_eq_reif(X_INTRODUCED_9_,0,X_INTRODUCED_197_):: defines_var(X_INTRODUCED_197_);
constraint int_eq_reif(X_INTRODUCED_64_,X_INTRODUCED_63_,X_INTRODUCED_198_):: defines_var(X_INTRODUCED_198_);
constraint int_eq_reif(X_INTRODUCED_64_,X_INTRODUCED_9_,X_INTRODUCED_199_):: defines_var(X_INTRODUCED_199_);
constraint int_eq_reif(X_INTRODUCED_10_,0,X_INTRODUCED_209_):: defines_var(X_INTRODUCED_209_);
constraint int_eq_reif(X_INTRODUCED_65_,X_INTRODUCED_64_,X_INTRODUCED_210_):: defines_var(X_INTRODUCED_210_);
constraint int_eq_reif(X_INTRODUCED_65_,X_INTRODUCED_10_,X_INTRODUCED_211_):: defines_var(X_INTRODUCED_211_);
constraint int_eq_reif(X_INTRODUCED_11_,0,X_INTRODUCED_221_):: defines_var(X_INTRODUCED_221_);
constraint int_eq_reif(X_INTRODUCED_66_,X_INTRODUCED_65_,X_INTRODUCED_222_):: defines_var(X_INTRODUCED_222_);
constraint int_eq_reif(X_INTRODUCED_66_,X_INTRODUCED_11_,X_INTRODUCED_223_):: defines_var(X_INTRODUCED_223_);
constraint int_eq_reif(X_INTRODUCED_12_,0,X_INTRODUCED_233_):: defines_var(X_INTRODUCED_233_);
constraint int_eq_reif(X_INTRODUCED_67_,X_INTRODUCED_66_,X_INTRODUCED_234_):: defines_var(X_INTRODUCED_234_);
constraint int_eq_reif(X_INTRODUCED_67_,X_INTRODUCED_12_,X_INTRODUCED_235_):: defines_var(X_INTRODUCED_235_);
constraint int_eq_reif(X_INTRODUCED_13_,0,X_INTRODUCED_245_):: defines_var(X_INTRODUCED_245_);
constraint int_eq_reif(X_INTRODUCED_68_,X_INTRODUCED_67_,X_INTRODUCED_246_):: defines_var(X_INTRODUCED_246_);
constraint int_eq_reif(X_INTRODUCED_68_,X_INTRODUCED_13_,X_INTRODUCED_247_):: defines_var(X_INTRODUCED_247_);
constraint int_eq_reif(X_INTRODUCED_14_,0,X_INTRODUCED_257_):: defines_var(X_INTRODUCED_257_);
constraint int_eq_reif(X_INTRODUCED_69_,X_INTRODUCED_68_,X_INTRODUCED_258_):: defines_var(X_INTRODUCED_258_);
constraint int_eq_reif(X_INTRODUCED_69_,X_INTRODUCED_14_,X_INTRODUCED_259_):: defines_var(X_INTRODUCED_259_);
constraint int_lin_eq([1,14,-1],[X_INTRODUCED_56_,X_INTRODUCED_0_,X_INTRODUCED_271_],-1):: domain:: defines_var(X_INTRODUCED_271_);
constraint int_lin_eq([1,14,-1],[X_INTRODUCED_57_,X_INTRODUCED_56_,X_INTRODUCED_273_],-1):: domain:: defines_var(X_INTRODUCED_273_);
constraint int_lin_eq([1,14,-1],[X_INTRODUCED_58_,X_INTRODUCED_57_,X_INTRODUCED_275_],-1):: domain:: defines_var(X_INTRODUCED_275_);
constraint int_lin_eq([1,14,-1],[X_INTRODUCED_59_,X_INTRODUCED_58_,X_INTRODUCED_277_],-1):: domain:: defines_var(X_INTRODUCED_277_);
constraint int_lin_eq([1,14,-1],[X_INTRODUCED_60_,X_INTRODUCED_59_,X_INTRODUCED_279_],-1):: domain:: defines_var(X_INTRODUCED_279_);
constraint int_lin_eq([1,14,-1],[X_INTRODUCED_61_,X_INTRODUCED_60_,X_INTRODUCED_281_],-1):: domain:: defines_var(X_INTRODUCED_281_);
constraint int_lin_eq([1,14,-1],[X_INTRODUCED_62_,X_INTRODUCED_61_,X_INTRODUCED_283_],-1):: domain:: defines_var(X_INTRODUCED_283_);
constraint int_lin_eq([1,14,-1],[X_INTRODUCED_63_,X_INTRODUCED_62_,X_INTRODUCED_285_],-1):: domain:: defines_var(X_INTRODUCED_285_);
constraint int_lin_eq([1,14,-1],[X_INTRODUCED_64_,X_INTRODUCED_63_,X_INTRODUCED_287_],-1):: domain:: defines_var(X_INTRODUCED_287_);
constraint int_lin_eq([1,14,-1],[X_INTRODUCED_65_,X_INTRODUCED_64_,X_INTRODUCED_289_],-1):: domain:: defines_var(X_INTRODUCED_289_);
constraint int_lin_eq([1,14,-1],[X_INTRODUCED_66_,X_INTRODUCED_65_,X_INTRODUCED_291_],-1):: domain:: defines_var(X_INTRODUCED_291_);
constraint int_lin_eq([1,14,-1],[X_INTRODUCED_67_,X_INTRODUCED_66_,X_INTRODUCED_293_],-1):: domain:: defines_var(X_INTRODUCED_293_);
constraint int_lin_eq([1,14,-1],[X_INTRODUCED_68_,X_INTRODUCED_67_,X_INTRODUCED_295_],-1):: domain:: defines_var(X_INTRODUCED_295_);
constraint int_lin_eq([1,14,-1],[X_INTRODUCED_69_,X_INTRODUCED_68_,X_INTRODUCED_297_],-1):: domain:: defines_var(X_INTRODUCED_297_);
solve :: seq_search([int_search(production_by_order,first_fail,indomain_median,complete),int_search(inventory_periods,first_fail,indomain_min,complete)]) minimize objective;
